[runlim] version:		1.10
[runlim] time limit:		311040000 seconds
[runlim] real time limit:	600 seconds
[runlim] space limit:		14000 MB
[runlim] argv[0]:		python3
[runlim] argv[1]:		-u
[runlim] argv[2]:		mip.py
[runlim] argv[3]:		graph06
[runlim] start:			Sat Jan 24 19:16:49 2026
[runlim] main pid:		48871
Building MIP model...
[runlim] sample:		10.0 time, 10.2 real, 31.8 MB
[runlim] sample:		20.0 time, 20.2 real, 34.0 MB
[runlim] sample:		30.0 time, 30.2 real, 37.0 MB
[runlim] sample:		40.0 time, 40.2 real, 39.4 MB
[runlim] sample:		50.0 time, 50.2 real, 41.9 MB
Build time: 59.41s
Solving MIP (minimizing number of labels)...
Version identifier: 22.1.1.0 | 2022-11-28 | 9160aff4d
CPXPARAM_Read_DataCheck                          1
Legacy callback                                  i
Infeasibility row 'c26':  0  = 1.
Presolve time = 0.07 sec. (44.36 ticks)

Root node processing (before b&c):
  Real time             =    0.09 sec. (62.15 ticks)
Parallel b&c, 12 threads:
  Real time             =    0.00 sec. (0.00 ticks)
  Sync time (average)   =    0.00 sec.
  Wait time (average)   =    0.00 sec.
                          ------------
Total (root+branch&cut) =    0.09 sec. (62.15 ticks)
CPLEX Error  1217: No solution exists.
No solution found.
[runlim] end:			Sat Jan 24 19:17:48 2026
[runlim] status:		ok
[runlim] result:		0
[runlim] children:		0
[runlim] real:			59.82 seconds
[runlim] time:			59.56 seconds
[runlim] space:			90.1 MB
[runlim] samples:		596
